cvc5/05_track_156_hard.smt2
(set-info :smt-lib-version 2.6)
(set-logic QF_SLIA)
(set-info :source |
Generated by: Joel Day, Thorsten Ehlers, Mitja Kulczynski, Federico Mora, Florin Manea, Dirk Nowotka, Danny Poulsen, Zhengyang Lu
Application: Test WOORPJE
Target solver: WOORPJE
Publications: Day, J. D., Ehlers, T., Kulczynski, M., Manea, F., Nowotka, D., & Poulsen, D. B. (2019). On solving word equations using SAT. In RP 2019
Description: Enriches a system of 30 word equations by suitable linear constraints
|)
(set-info :license "https://creativecommons.org/licenses/by/4.0/")
(set-info :category "random")
(set-info :status unknown)

(declare-fun I () String)
(declare-fun H () String)
(declare-fun F () String)
(declare-fun E () String)
(declare-const part_1_8234 String)
(declare-const rest_0_7452 String)
(assert (= (str.++  "efadc" E "ebcecedeaabfcbfadfdcf")  (str.++  "efadcfdcafd" I "ce" F "aabfcbfadfdcf") ))
(assert (= (str.++  "fbcccbdefcfdaaffbeafbdfaf" H "abababdeef")  (str.++  "fbcccbdefcfdaaffbeafbdfaf" H "abababdeef") ))
(assert (= (str.++  "aebcefcffadceeabecadeeaae" I "ccbfadcbcf")  (str.++  "aebcefcffadceeabecadeeaaebcddcccbfadcbcf" "") ))
(assert (>=(* (str.len I) 13) 13))
(assert (>=(* (str.len E) 17) 204))
(assert (<=(* (str.len E) 14) 1834))
(assert (<=(* (str.len H) 14) 126))
(assert (<=(* (str.len F) 9) 1539))
(assert (= (str.split_rest H "=>" 1) "b83emg"))
(assert (= (str.split_rest I ",,," 4) "2gch3i3"))
(assert (= (str.split_rest E "/" 4) "rpd68pgl"))
(assert (= (str.split_at E "=>" 2) E))
(assert (= (str.split_at E "=>" 3) part_1_8234))
(assert (str.suffixof "xy" part_1_8234))
(assert (= (str.split_rest E "=>" 3) rest_0_7452))
(assert (str.contains rest_0_7452 "j"))
(assert (and (>= (str.num_splits E "=>") 3) (<= (str.num_splits E "=>") 5)))
(assert (and (>= (str.num_splits E "=>") 1) (<= (str.num_splits E "=>") 5)))
(check-sat)

(exit)
(get-model)
