cvc5/05_track_156_hard.txt
(define-fun I () String "bcddc")
(define-fun H () String "")
(define-fun F () String "bcecede")
(define-fun E () String "fdcafdbcddcc")
(define-fun part_1_8234 () String "xy")
(define-fun rest_0_7452 () String "j")